RT is False
Default write of storage_offers_DA.csv just to have a file (but constraint should be inactive)
Reading model...
...model read.
creating competitive generators file...
...competitive generators recorded.
Loading data...
.. day-ahead data with real-time VRE data read.
Compiling instance...
...instance created.
Creating Offer Mitigation (model will solve as dispatch if TRUE)...
NOTE: storage offers will not be mitigated
...storage offer mitigation file created
Converting model to MPEC...
...converted
NOTE: initial MIP solve with only storage competitive to get feasible solution
Solving...

Welcome to IBM(R) ILOG(R) CPLEX(R) Interactive Optimizer 12.9.0.0
  with Simplex, Mixed Integer & Barrier Optimizers
5725-A06 5725-A29 5724-Y48 5724-Y49 5724-Y54 5724-Y55 5655-Y21
Copyright IBM Corp. 1988, 2019.  All Rights Reserved.

Type 'help' for a list of available commands.
Type 'help' followed by a command name for more
information on commands.

CPLEX> Logfile 'cplex.log' closed.
Logfile 'C:\Users\llavin\Desktop\test919\logs\tmpet94n4f_.cplex.log' open.
CPLEX> New value for parallel optimization mode: -1
CPLEX> New value for mixed integer optimality gap tolerance: 0.01
CPLEX> New value for integrality tolerance: 1e-09
CPLEX> New value for feasibility tolerance: 0.1
CPLEX> New value for deterministic time limit in ticks: 100000
CPLEX> Problem 'C:\Users\llavin\Desktop\test919\logs\tmp08wiji3o.pyomo.lp' read.
Read time = 0.25 sec. (13.86 ticks)
CPLEX> Problem name         : C:\Users\llavin\Desktop\test919\logs\tmp08wiji3o.pyomo.lp
Objective sense      : Maximize
Variables            :   53321  [Nneg: 1,  Box: 21806,  Free: 4416,
                                 Binary: 27098]
Objective nonzeros   :    9029
Linear constraints   :  122164  [Less: 40983,  Greater: 58612,  Equal: 22569]
  Nonzeros           :  288457
  RHS nonzeros       :   66982

Variables            : Min LB: -5000.000        Max UB: 1000000.       
Objective nonzeros   : Min   : 0.2250000        Max   : 90000.00       
Linear constraints   :
  Nonzeros           : Min   : 0.2250000        Max   : 2910000.       
  RHS nonzeros       : Min   : 0.2250000        Max   : 3000000.       
CPLEX> CPXPARAM_Parallel                                -1
CPXPARAM_Simplex_Tolerances_Feasibility          0.10000000000000001
CPXPARAM_DetTimeLimit                            100000
CPXPARAM_MIP_Tolerances_MIPGap                   0.01
CPXPARAM_MIP_Tolerances_Integrality              1.0000000000000001e-09
Tried aggregator 3 times.
MIP Presolve eliminated 88072 rows and 18952 columns.
MIP Presolve added 3355 rows and 0 columns.
MIP Presolve modified 23592 coefficients.
Aggregator did 12840 substitutions.
Reduced MIP has 24607 rows, 20973 columns, and 68911 nonzeros.
Reduced MIP has 8302 binaries, 0 generals, 0 SOSs, and 0 indicators.
Presolve time = 0.30 sec. (172.88 ticks)
Probing fixed 428 vars, tightened 2903 bounds.
Probing time = 1.23 sec. (901.02 ticks)
Tried aggregator 2 times.
MIP Presolve eliminated 958 rows and 858 columns.
MIP Presolve modified 2211 coefficients.
Aggregator did 51 substitutions.
Reduced MIP has 23598 rows, 20064 columns, and 65974 nonzeros.
Reduced MIP has 7874 binaries, 0 generals, 0 SOSs, and 0 indicators.
Presolve time = 0.09 sec. (66.78 ticks)
Probing fixed 0 vars, tightened 1 bounds.
Probing time = 0.03 sec. (20.21 ticks)
Clique table members: 6250.
MIP emphasis: balance optimality and feasibility.
MIP search method: dynamic search.
Parallel mode: opportunistic, using up to 32 threads.
Root relaxation solution time = 0.38 sec. (272.77 ticks)

        Nodes                                         Cuts/
   Node  Left     Objective  IInf  Best Integer    Best Bound    ItCnt     Gap

      0     0     2723.4509  1560                   2723.4509     4485         
      0     0     2723.4509   617                  Cuts: 1061     4908         
      0     0     2723.4509   435                   Cuts: 816     5137         
      0     0     2723.4509   370                   Cuts: 427     5245         
      0     0     2723.4509   351                   Cuts: 209     5274         
      0     0     2723.4509   335                   Cuts: 159     5298         
      0     0     2723.4509   324                   Cuts: 137     5321         
      0     0     2723.4509   311                   Cuts: 141     5334         
      0     0     2723.4509   302                   Cuts: 120     5344         
      0     0     2723.4509   307                   Cuts: 103     5351         
      0     0     2723.4509   299                    Cuts: 99     5354         
      0    11    infeasible                       Flowcuts: 1     5518         
Elapsed time = 9.89 sec. (5844.39 ticks, tree = 0.02 MB, solutions = 0)
    403   349    -2638.6846   282                     83.0955     6842         
   1163  1226      606.9637   274                     83.0955     8798         
   2307  1641    -4268.4858   264                     83.0955     9454         
   3847  1874   -26367.3330   226                     83.0955     9796         
   4565  3887  -406007.8370   213                     83.0955    16384         
   5155  4305   -20333.0454   241                     83.0955    22925         
   5862  5066     2592.6690   265                     83.0955    48186         
   6635  5762  -756369.9701   148                     83.0955    55094         
   7244  5635   -12055.5630   260                     83.0955    54536         
*  7960+ 4881                       -12951.1498       83.0955           100.64%
Elapsed time = 24.13 sec. (8322.07 ticks, tree = 37.15 MB, solutions = 1)
*  9572  6881      integral     0     2584.6027       83.0955    66219  -96.78%

Clique cuts applied:  27
Implied bound cuts applied:  69
Flow cuts applied:  1042
Mixed integer rounding cuts applied:  43
Gomory fractional cuts applied:  18

Root node processing (before b&c):
  Real time             =    8.78 sec. (5836.22 ticks)
Parallel b&c, 32 threads:
  Real time             =   17.75 sec. (3514.69 ticks)
  Sync time (average)   =    0.65 sec.
  Wait time (average)   =    0.00 sec.
                          ------------
Total (root+branch&cut) =   26.53 sec. (9350.91 ticks)

Solution pool: 2 solutions saved.

MIP - Integer optimal solution:  Objective =  2.5846026615e+03
Solution time =   26.55 sec.  Iterations = 75838  Nodes = 10697
Deterministic time = 9351.06 ticks  (352.25 ticks/sec)

CPLEX> Incumbent solution written to file 'C:\Users\llavin\Desktop\test919\logs\tmppmnlgxob.cplex.sol'.
CPLEX> NOTE: no warmstart specified for MIP iteration, default behavior is true
NOTE: resolving with all competitive generators using storage-only solution to warmstart
Solving...

Welcome to IBM(R) ILOG(R) CPLEX(R) Interactive Optimizer 12.9.0.0
  with Simplex, Mixed Integer & Barrier Optimizers
5725-A06 5725-A29 5724-Y48 5724-Y49 5724-Y54 5724-Y55 5655-Y21
Copyright IBM Corp. 1988, 2019.  All Rights Reserved.

Type 'help' for a list of available commands.
Type 'help' followed by a command name for more
information on commands.

CPLEX> Logfile 'cplex.log' closed.
Logfile 'C:\Users\llavin\Desktop\test919\logs\tmpfznxo1n9.cplex.log' open.
CPLEX> New value for parallel optimization mode: -1
CPLEX> New value for mixed integer optimality gap tolerance: 0.01
CPLEX> New value for integrality tolerance: 1e-09
CPLEX> New value for feasibility tolerance: 0.1
CPLEX> New value for deterministic time limit in ticks: 100000
CPLEX> Problem 'C:\Users\llavin\Desktop\test919\logs\tmpv64qq1k9.pyomo.lp' read.
Read time = 0.25 sec. (13.88 ticks)
CPLEX> MIP start file 'C:\Users\llavin\Desktop\test919\logs\tmpp5iv_s7g.cplex.mst' read.
CPLEX> Problem name         : C:\Users\llavin\Desktop\test919\logs\tmpv64qq1k9.pyomo.lp
Objective sense      : Maximize
Variables            :   54041  [Nneg: 1,  Box: 22526,  Free: 4416,
                                 Binary: 27098]
Objective nonzeros   :    9725
Linear constraints   :  122164  [Less: 40983,  Greater: 58612,  Equal: 22569]
  Nonzeros           :  288457
  RHS nonzeros       :   66982

Variables            : Min LB: -5000.000        Max UB: 1000000.       
Objective nonzeros   : Min   : 0.2250000        Max   : 90000.00       
Linear constraints   :
  Nonzeros           : Min   : 0.2250000        Max   : 2910000.       
  RHS nonzeros       : Min   : 0.2250000        Max   : 3000000.       
CPLEX> CPXPARAM_Parallel                                -1
CPXPARAM_Simplex_Tolerances_Feasibility          0.10000000000000001
CPXPARAM_DetTimeLimit                            100000
CPXPARAM_MIP_Tolerances_MIPGap                   0.01
CPXPARAM_MIP_Tolerances_Integrality              1.0000000000000001e-09
Warning:  No solution found from 1 MIP starts.
Retaining values of one MIP start for possible repair.
Tried aggregator 3 times.
MIP Presolve eliminated 88072 rows and 19672 columns.
MIP Presolve added 3355 rows and 0 columns.
MIP Presolve modified 23592 coefficients.
Aggregator did 12840 substitutions.
Reduced MIP has 24607 rows, 20973 columns, and 68911 nonzeros.
Reduced MIP has 8302 binaries, 0 generals, 0 SOSs, and 0 indicators.
Presolve time = 0.30 sec. (173.24 ticks)
Probing fixed 428 vars, tightened 2903 bounds.
Probing time = 1.23 sec. (901.02 ticks)
Tried aggregator 2 times.
MIP Presolve eliminated 958 rows and 858 columns.
MIP Presolve modified 2211 coefficients.
Aggregator did 51 substitutions.
Reduced MIP has 23598 rows, 20064 columns, and 65974 nonzeros.
Reduced MIP has 7874 binaries, 0 generals, 0 SOSs, and 0 indicators.
Presolve time = 0.09 sec. (66.78 ticks)
Probing fixed 0 vars, tightened 1 bounds.
Probing time = 0.05 sec. (20.21 ticks)
Clique table members: 6250.
MIP emphasis: balance optimality and feasibility.
MIP search method: dynamic search.
Parallel mode: opportunistic, using up to 32 threads.
Root relaxation solution time = 0.31 sec. (243.14 ticks)

        Nodes                                         Cuts/
   Node  Left     Objective  IInf  Best Integer    Best Bound    ItCnt     Gap

      0     0    71563.2825  1744                  71563.2825     4227         
      0     0    64274.9082   729                  Cuts: 1223     4626         
      0     0    64251.0782   560                   Cuts: 921     4866         
      0     0    64244.3191   490                   Cuts: 597     4982         
      0     0    64242.0005   470                   Cuts: 263     5016         
      0     0    64242.0005   460                   Cuts: 218     5049         
      0     0    64242.0005   442                   Cuts: 196     5074         
      0     0    64242.0005   433                   Cuts: 197     5095         
      0     0    64242.0005   424                   Cuts: 169     5110         
      0     0    64242.0005   416                   Cuts: 175     5121         
      0     0    64242.0005   418                   Cuts: 165     5128         
Repair heuristic found nothing.
      0    33    58499.0653   339                    Cuts: 80     6139         
Elapsed time = 11.59 sec. (6552.40 ticks, tree = 0.02 MB, solutions = 0)
    457   213    56147.8371   274                  64121.3843    12103         
   1083   258    58524.6226   291                  64121.3843    12703         
   2006   865    63020.2020   305                  64121.3843    16257         
   3483  1192    60481.1921   278                  64121.3843    16867         
   4677  1618    55668.7114   238                  64121.3843    17401         
   5727  1021    62247.4452   284                  64121.3843    16313         
   6824  6269    61677.4663   279                  64121.3843    19479         
   7703  6053    60604.5366   249                  64121.3843    19444         
   8583  6078    60604.5366   231                  64121.3843    19463         
*  9206+ 1087                        61090.2654    64121.3843             4.96%
Elapsed time = 25.33 sec. (8868.37 ticks, tree = 3.42 MB, solutions = 1)
  12025  1053        cutoff          61090.2654    64121.3843    23935    4.96%
  14360  1075    61694.3525   237    61090.2654    64121.3843    37273    4.96%
  14373  4322        cutoff          61090.2654    64121.3843    53773    4.96%
  15291   180    65155.7643   290    61090.2654    64121.3843    55112    4.96%
  18194  2075    61189.7458   155    61090.2654    64121.3843    65620    4.96%
* 19904  2256      integral     0    64931.3189    64121.3843    66413   -1.25%
  21076  3410    61341.0291   166    64931.3189    64121.3843    69001   -1.25%

GUB cover cuts applied:  2
Clique cuts applied:  11
Cover cuts applied:  22
Implied bound cuts applied:  19
Flow cuts applied:  629
Mixed integer rounding cuts applied:  45
Zero-half cuts applied:  1
Gomory fractional cuts applied:  128

Root node processing (before b&c):
  Real time             =    9.87 sec. (6528.84 ticks)
Parallel b&c, 32 threads:
  Real time             =   57.39 sec. (20645.45 ticks)
  Sync time (average)   =    1.51 sec.
  Wait time (average)   =    0.41 sec.
                          ------------
Total (root+branch&cut) =   67.26 sec. (27174.29 ticks)

Solution pool: 2 solutions saved.

MIP - Integer optimal solution:  Objective =  6.4931318923e+04
Solution time =   67.28 sec.  Iterations = 78301  Nodes = 21398
Deterministic time = 27174.44 ticks  (403.89 ticks/sec)

CPLEX> Incumbent solution written to file 'C:\Users\llavin\Desktop\test919\logs\tmp1523eqsv.cplex.sol'.
CPLEX> Exporting results... 
